10
20
969
953
901
748
670
658
115
47
38
19
51	451
116	516
138	538
150	550
267	667
529	929
569	969
699	1099
831	1231
993	1393
114	514
174	574
386	786
448	848
578	978
606	1006
849	1249
886	1286
902	1302
961	1361
